(set-info :smt-lib-version 2.6)
(set-logic LRA)
(set-info :source |
   Monniaux, David; Quantifier Elimination by Lazy Model Enumeration, CAV 2010
|)
(set-info :category "random")
; ./Mjollnir_examples/B3/formula_251.m
(set-info :status unsat)
(assert
 (forall ((|v11:0| Real) )(forall ((|v10:1| Real) )(forall ((|v9:2| Real) )(forall ((|v8:3| Real) )(exists ((|v7:4| Real) )(exists ((|v6:5| Real) )(exists ((|v5:6| Real) )(exists ((|v4:7| Real) )(forall ((|v3:8| Real) )(forall ((|v2:9| Real) )(forall ((|v1:10| Real) )(forall ((|v0:11| Real) )(let ((?x109 (- 16)))
(let ((?x576 (+ (+ (* 17 |v7:4|) (* (- 8) |v7:4|)) (* 10 |v2:9|))))
(let ((?x14 5))
(let ((?x60 16))
(let ((?x559 (* ?x60 |v1:10|)))
(let ((?x571 (+ (+ (+ (* 8 |v2:9|) |v6:5|) (* (- 10) |v9:2|)) ?x559)))
(let ((?x198 9))
(let ((?x263 (- 14)))
(let ((?x473 (* ?x263 |v4:7|)))
(let ((?x10 17))
(let ((?x406 (* ?x10 |v7:4|)))
(let (($x565 (<= (+ (+ (+ (* (- 15) |v1:10|) (* ?x14 |v1:10|)) ?x406) ?x473) ?x198)))
(let ((?x96 2))
(let ((?x149 (- 8)))
(let ((?x486 (* ?x149 |v1:10|)))
(let ((?x560 (+ (+ (+ (* (- 7) |v2:9|) (* (- 11) |v9:2|)) ?x486) ?x559)))
(let (($x581 (and (or (<= ?x560 ?x96) $x565) (and (<= ?x571 ?x14) (<= (+ ?x576 (* 6 |v2:9|)) ?x109)))))
(let ((?x64 10))
(let ((?x57 11))
(let ((?x330 (* ?x57 |v4:7|)))
(let ((?x552 (+ (+ (+ (* (- 15) |v3:8|) (* (- 9) |v3:8|)) ?x330) (* (- 1) |v3:8|))))
(let ((?x190 3))
(let ((?x543 (+ (+ (* (- 3) |v7:4|) (* ?x14 |v0:11|)) (* (- 2) |v8:3|))))
(let ((?x75 14))
(let ((?x536 (+ (+ (* (- 13) |v4:7|) (* (- 12) |v3:8|)) (* 8 |v10:1|))))
(let ((?x32 (- 4)))
(let ((?x491 (* ?x32 |v6:5|)))
(let ((?x531 (+ (+ (+ (* ?x75 |v8:3|) (* (- 3) |v4:7|)) (* ?x32 |v5:6|)) ?x491)))
(let (($x555 (and (or (<= ?x531 ?x60) (<= (+ ?x536 (* ?x57 |v1:10|)) ?x75)) (or (<= (+ ?x543 (* (- 6) |v3:8|)) ?x190) (<= ?x552 ?x64)))))
(let ((?x521 (+ (+ (+ ?x491 (* ?x198 |v10:1|)) (* 20 |v4:7|)) (* 19 |v9:2|))))
(let ((?x85 (- 2)))
(let ((?x512 (+ (+ (* 4 |v1:10|) (* (- 12) |v10:1|)) (* 4 |v7:4|))))
(let ((?x19 (- 20)))
(let ((?x214 (* ?x96 |v3:8|)))
(let (($x524 (and (<= (+ (+ (+ (* ?x96 |v11:0|) ?x214) (* ?x14 |v2:9|)) ?x214) ?x19) (and (<= (+ ?x512 (* (- 18) |v2:9|)) ?x85) (<= ?x521 ?x64)))))
(let ((?x115 (- 5)))
(let ((?x185 (* ?x10 |v10:1|)))
(let ((?x499 (+ (+ (+ (* (- 13) |v0:11|) (* 7 |v0:11|)) ?x185) (* 15 |v3:8|))))
(let (($x493 (<= (+ (+ (+ ?x486 (* ?x14 |v0:11|)) (* 20 |v6:5|)) ?x491) ?x96)))
(let ((?x144 4))
(let ((?x179 (* ?x144 |v8:3|)))
(let ((?x483 (+ (+ (+ (* 19 |v0:11|) (* 20 |v5:6|)) ?x179) (* 18 |v8:3|))))
(let ((?x50 (- 15)))
(let ((?x348 (* ?x64 |v11:0|)))
(let (($x478 (<= (+ (+ (+ (* (- 12) |v11:0|) ?x473) (* ?x115 |v2:9|)) ?x348) ?x50)))
(let (($x583 (or (and (and (and $x478 (<= ?x483 ?x85)) (or $x493 (<= ?x499 ?x115))) $x524) (and $x555 $x581))))
(let ((?x158 13))
(let ((?x466 (+ (+ (+ (* ?x149 |v0:11|) (* ?x190 |v8:3|)) (* 18 |v7:4|)) |v6:5|)))
(let ((?x42 (- 13)))
(let ((?x331 (* ?x42 |v7:4|)))
(let ((?x137 15))
(let ((?x138 (* ?x137 |v6:5|)))
(let ((?x459 (+ (+ (+ (* (- 17) |v0:11|) (* (- 6) |v4:7|)) ?x138) ?x331)))
(let ((?x228 (- 7)))
(let ((?x317 (* ?x228 |v2:9|)))
(let ((?x453 (+ (+ (+ (* (- 1) |v0:11|) (* ?x96 |v1:10|)) (* ?x198 |v6:5|)) ?x317)))
(let ((?x195 (- 3)))
(let ((?x447 (+ (+ (+ (* (- 19) |v4:7|) (* ?x75 |v6:5|)) (* ?x228 |v8:3|)) (* (- 17) |v2:9|))))
(let (($x469 (or (and (<= ?x447 ?x195) (<= ?x453 ?x85)) (or (<= ?x459 ?x96) (<= ?x466 ?x158)))))
(let ((?x439 20))
(let ((?x72 (- 12)))
(let ((?x73 (* ?x72 |v2:9|)))
(let ((?x99 (- 10)))
(let ((?x154 (- 1)))
(let ((?x155 (* ?x154 |v8:3|)))
(let ((?x24 (- 19)))
(let ((?x430 (* ?x24 |v4:7|)))
(let ((?x432 (+ (+ (+ (* (- 18) |v1:10|) (* 0 |v6:5|)) ?x430) ?x155)))
(let (($x441 (and (<= ?x432 ?x99) (<= (+ (+ (+ (* ?x64 |v3:8|) |v6:5|) (* ?x115 |v10:1|)) ?x73) ?x439))))
(let ((?x425 (+ (+ (+ (* (- 9) |v5:6|) (* ?x109 |v9:2|)) (* ?x32 |v2:9|)) (* (- 17) |v8:3|))))
(let ((?x45 12))
(let ((?x414 (+ (+ (+ (* (- 9) |v9:2|) (* (- 18) |v9:2|)) |v6:5|) (* ?x60 |v10:1|))))
(let ((?x167 7))
(let ((?x405 (+ (+ (* 0 |v7:4|) (* ?x144 |v0:11|)) (* (- 17) |v4:7|))))
(let ((?x33 (* ?x32 |v7:4|)))
(let (($x400 (<= (+ (+ (+ (* ?x167 |v4:7|) (* ?x195 |v11:0|)) (* ?x24 |v6:5|)) ?x33) ?x42)))
(let (($x395 (<= (+ (+ (+ (* ?x167 |v7:4|) (* ?x263 |v5:6|)) ?x185) (* ?x144 |v6:5|)) ?x149)))
(let ((?x385 (+ (+ (+ (* ?x158 |v4:7|) (* 0 |v4:7|)) (* ?x14 |v7:4|)) (* ?x45 |v9:2|))))
(let ((?x164 19))
(let ((?x230 (* ?x164 |v1:10|)))
(let (($x378 (<= (+ (+ (+ (* ?x96 |v5:6|) (* ?x50 |v5:6|)) (* ?x64 |v9:2|)) ?x230) ?x10)))
(let ((?x298 (- 9)))
(let ((?x370 (+ (+ (+ (* ?x109 |v3:8|) (* ?x45 |v2:9|)) (* (- 18) |v5:6|)) (* ?x109 |v4:7|))))
(let ((?x363 (+ (+ (+ (* ?x167 |v4:7|) (* ?x42 |v4:7|)) (* (- 18) |v6:5|)) (* ?x158 |v11:0|))))
(let (($x418 (or (or (and (<= ?x363 ?x158) (<= ?x370 ?x298)) (or $x378 (<= ?x385 ?x195))) (and (or $x395 $x400) (or (<= (+ ?x405 ?x406) ?x167) (<= ?x414 ?x45))))))
(let (($x352 (<= (+ (+ (+ (* ?x10 |v1:10|) (* ?x24 |v3:8|)) ?x348) (* ?x19 |v0:11|)) ?x72)))
(let (($x343 (<= (+ (+ (+ (* ?x167 |v6:5|) (* ?x96 |v2:9|)) (* ?x64 |v10:1|)) ?x185) ?x190)))
(let ((?x236 18))
(let (($x336 (<= (+ (+ (+ ?x330 ?x331) (* ?x228 |v4:7|)) (* 8 |v7:4|)) ?x236)))
(let ((?x187 (* ?x75 |v4:7|)))
(let (($x327 (<= (+ (+ (+ (* ?x57 |v6:5|) (* ?x85 |v3:8|)) (* ?x115 |v8:3|)) ?x187) ?x154)))
(let ((?x312 6))
(let (($x321 (<= (+ (+ (+ (* ?x198 |v5:6|) (* ?x85 |v1:10|)) ?x317) (* ?x57 |v3:8|)) ?x312)))
(let ((?x311 (+ (+ (+ (* ?x14 |v6:5|) (* (- 17) |v10:1|)) (* ?x32 |v1:10|)) (* ?x137 |v9:2|))))
(let (($x305 (<= (+ (+ (+ (* ?x298 |v7:4|) (* ?x50 |v9:2|)) ?x185) (* ?x144 |v10:1|)) ?x115)))
(let (($x354 (or (or (or $x305 (<= ?x311 ?x312)) (or $x321 $x327)) (or (or $x336 $x343) $x352))))
(let ((?x121 8))
(let ((?x292 (+ (+ (+ (* ?x42 |v3:8|) (* ?x85 |v1:10|)) (* ?x154 |v11:0|)) (* ?x32 |v8:3|))))
(let ((?x124 (- 18)))
(let ((?x284 (+ (+ (+ (* ?x96 |v1:10|) (* ?x137 |v11:0|)) (* ?x14 |v6:5|)) (* ?x167 |v8:3|))))
(let ((?x250 (* ?x10 |v9:2|)))
(let ((?x276 (+ (+ (+ (* (- 6) |v1:10|) (* ?x195 |v2:9|)) (* ?x124 |v5:6|)) ?x250)))
(let ((?x269 (+ (+ (+ (* ?x72 |v6:5|) (* ?x263 |v1:10|)) (* ?x32 |v1:10|)) (* ?x19 |v2:9|))))
(let (($x295 (or (or (<= ?x269 ?x57) (<= ?x276 ?x96)) (and (<= ?x284 ?x124) (<= ?x292 ?x121)))))
(let ((?x240 (* ?x19 |v1:10|)))
(let (($x259 (<= (+ (+ (+ (* ?x115 |v10:1|) (* ?x144 |v0:11|)) (* ?x45 |v8:3|)) ?x240) ?x24)))
(let (($x252 (<= (+ (+ (+ (* ?x60 |v5:6|) (* ?x50 |v1:10|)) (* ?x45 |v10:1|)) ?x250) ?x154)))
(let ((?x27 (- 17)))
(let (($x237 (<= (+ (+ (+ (* ?x228 |v8:3|) ?x230) (* ?x72 |v6:5|)) (* ?x27 |v6:5|)) ?x236)))
(let (($x245 (and $x237 (<= (+ (+ (+ (* ?x19 |v11:0|) ?x138) ?x240) (* ?x85 |v2:9|)) ?x27))))
(let (($x221 (<= (+ (+ (+ ?x214 (* ?x96 |v9:2|)) (* ?x124 |v7:4|)) (* ?x64 |v9:2|)) ?x167)))
(let ((?x90 (- 6)))
(let ((?x211 (* ?x90 |v4:7|)))
(let (($x213 (<= (+ (+ (+ (* ?x32 |v3:8|) (* ?x190 |v10:1|)) (* ?x144 |v2:9|)) ?x211) ?x85)))
(let ((?x58 (* ?x57 |v7:4|)))
(let (($x204 (<= (+ (+ (+ (* ?x195 |v7:4|) (* ?x198 |v3:8|)) (* ?x19 |v3:8|)) ?x58) ?x10)))
(let ((?x36 0))
(let (($x205 (or (<= (+ (+ (+ (* ?x24 |v6:5|) ?x185) ?x187) (* ?x190 |v4:7|)) ?x36) $x204)))
(let (($x181 (<= (+ (+ (+ (* ?x64 |v6:5|) (* ?x64 |v8:3|)) (* ?x96 |v7:4|)) ?x179) ?x85)))
(let ((?x172 (* ?x45 |v10:1|)))
(let (($x174 (<= (+ (+ (+ (* ?x164 |v3:8|) (* ?x167 |v3:8|)) (* ?x164 |v0:11|)) ?x172) ?x57)))
(let (($x161 (<= (+ (+ (+ (* ?x149 |v3:8|) (* ?x99 |v0:11|)) ?x155) (* ?x158 |v0:11|)) ?x144)))
(let (($x147 (<= (+ (+ (+ ?x138 (* ?x42 |v11:0|)) (* ?x99 |v6:5|)) (* ?x144 |v11:0|)) ?x72)))
(let (($x132 (<= (+ (+ (+ (* ?x99 |v8:3|) (* ?x115 |v8:3|)) |v9:2|) (* ?x24 |v10:1|)) ?x75)))
(let ((?x122 (* ?x121 |v7:4|)))
(let (($x125 (<= (+ (+ (+ (* ?x14 |v6:5|) (* ?x115 |v6:5|)) (* ?x14 |v3:8|)) ?x122) ?x124)))
(let ((?x108 (+ (+ (+ (* ?x96 |v0:11|) (* ?x99 |v10:1|)) (* ?x75 |v3:8|)) (* (- 11) |v11:0|))))
(let ((?x92 (+ (+ (+ (* ?x32 |v11:0|) (* ?x14 |v2:9|)) (* ?x85 |v10:1|)) (* ?x90 |v9:2|))))
(let (($x76 (<= (+ (+ (+ (* ?x64 |v8:3|) (* ?x27 |v1:10|)) (* ?x57 |v8:3|)) ?x73) ?x75)))
(let (($x61 (<= (+ (+ (+ (* ?x50 |v6:5|) (* ?x32 |v4:7|)) (* ?x10 |v8:3|)) ?x58) ?x60)))
(let (($x46 (<= (+ (+ (+ ?x33 (* ?x36 |v0:11|)) (* ?x27 |v5:6|)) (* ?x42 |v5:6|)) ?x45)))
(let ((?x26 (+ (+ (+ (* ?x10 |v8:3|) (* ?x14 |v1:10|)) (* ?x19 |v6:5|)) (* ?x24 |v5:6|))))
(let (($x135 (and (or (and (<= ?x26 ?x27) $x46) (and $x61 $x76)) (or (or (<= ?x92 ?x27) (<= ?x108 ?x109)) (and $x125 $x132)))))
(let (($x225 (and $x135 (or (and (or $x147 $x161) (or $x174 $x181)) (and $x205 (and $x213 $x221))))))
(or (and $x225 (or (and (and $x245 (and $x252 $x259)) $x295) $x354)) (or (and $x418 (and (or (<= ?x425 ?x115) $x441) $x469)) $x583)))))))))))))))))))))))))))))))))))))))))))))))))))))))))))))))))))))))))))))))))))))))))))))))))))))))))))))))))))))))))))))))))))))))))
)
)
)
)
)
)
)
)
)
)
)
)
(check-sat)
(exit)

